CPXPARAM_Read_DataCheck                          1
Found incumbent of value 0.000000 after 0.00 sec. (0.03 ticks)
Tried aggregator 1 time.
MIP Presolve eliminated 4 rows and 0 columns.
MIP Presolve modified 1 coefficients.
Reduced MIP has 127 rows, 1010 columns, and 4630 nonzeros.
Reduced MIP has 1010 binaries, 0 generals, 0 SOSs, and 0 indicators.
Presolve time = 0.02 sec. (1.88 ticks)
Probing time = 0.00 sec. (1.40 ticks)
Tried aggregator 1 time.
Reduced MIP has 127 rows, 1010 columns, and 4630 nonzeros.
Reduced MIP has 1010 binaries, 0 generals, 0 SOSs, and 0 indicators.
Presolve time = 0.00 sec. (2.09 ticks)
Probing time = 0.00 sec. (1.40 ticks)
Clique table members: 1000.
MIP emphasis: balance optimality and feasibility.
MIP search method: dynamic search.
Parallel mode: deterministic, using up to 4 threads.
Root relaxation solution time = 0.02 sec. (3.24 ticks)

        Nodes                                         Cuts/
   Node  Left     Objective  IInf  Best Integer    Best Bound    ItCnt     Gap

*     0+    0                            0.0000     6286.0000              --- 
*     0+    0                          263.0000     6286.0000              --- 
      0     0     3252.9300    10      263.0000     3252.9300      310     --- 
      0     0     2235.0258   181      263.0000     Cuts: 145      705  749.82%
      0     0     1978.1369   328      263.0000     Cuts: 147     1160  652.14%
*     0+    0                         1661.0000     1978.1369            19.09%
      0     0        cutoff           1661.0000     1661.0000     1491    0.00%
Elapsed time = 0.16 sec. (114.44 ticks, tree = 0.01 MB, solutions = 3)

GUB cover cuts applied:  1
Clique cuts applied:  335
Cover cuts applied:  17
Implied bound cuts applied:  4
Mixed integer rounding cuts applied:  40
Zero-half cuts applied:  8

Root node processing (before b&c):
  Real time             =    0.16 sec. (114.52 ticks)
Parallel b&c, 4 threads:
  Real time             =    0.00 sec. (0.00 ticks)
  Sync time (average)   =    0.00 sec.
  Wait time (average)   =    0.00 sec.
                          ------------
Total (root+branch&cut) =    0.16 sec. (114.52 ticks)
